peakDumbCharging = 11100; 
Machine = anon_enum(16); 
machineSpeed = [3700,3700,3700,3700,3700,3700,3700,3700,3700,3700,3700,3700,3700,3700,3700,3700]; 
machineLoad = [3700,3700,3700,3700,3700,3700,3700,3700,3700,3700,3700,3700,3700,3700,3700,3700]; 
Car = anon_enum(9); 
demandCar = [4000,6480,12600,3240,10040,2640,23720,10440,10360]; 
arrivalCar = [71,70,60,59,52,50,49,48,44]; 
departureCar = [73,74,65,61,59,52,62,52,48]; 
